26743.0
265, 353, 370, 414, 421, 573, 585, 600, 780, 781, 830, 915, 990, 1143, 1279, 1312, 1348, 1361, 1420, 1427, 1486, 1511, 1585, 1739, 1778, 1888, 1921, 2051, 2084, 2167, 2176, 2326, 2420, 2499, 2675, 2828, 2844, 2858, 3032, 3106, 3144, 3513, 3547, 3577, 3820, 3905, 3989, 4152, 4264, 4342, 4458, 4475, 4513, 4565, 4697, 4808, 4944